14° run output:
{
    "Function": "kroB1000.tsp",
    "Problem dimension": [
        269,
        745,
        515,
        785,
        778,
        169,
        44,
        702,
        755,
        671,
        714,
        941,
        548,
        376,
        596,
        211,
        338,
        640,
        343,
        698,
        155,
        456,
        684,
        24,
        535,
        783,
        478,
        21,
        862,
        208,
        734,
        593,
        412,
        87,
        803,
        904,
        592,
        233,
        583,
        976,
        732,
        744,
        215,
        253,
        993,
        358,
        691,
        647,
        280,
        295,
        188,
        449,
        362,
        156,
        1,
        493,
        88,
        724,
        384,
        413,
        158,
        198,
        451,
        263,
        943,
        399,
        779,
        214,
        806,
        552,
        949,
        284,
        848,
        770,
        638,
        494,
        395,
        161,
        788,
        467,
        288,
        32,
        483,
        581,
        599,
        611,
        311,
        332,
        511,
        150,
        795,
        352,
        673,
        508,
        604,
        19,
        227,
        571,
        982,
        992,
        472,
        502,
        11,
        794,
        678,
        776,
        600,
        49,
        64,
        777,
        634,
        147,
        127,
        28,
        807,
        672,
        0,
        615,
        728,
        48,
        409,
        656,
        148,
        427,
        558,
        633,
        387,
        595,
        579,
        819,
        239,
        222,
        507,
        880,
        56,
        965,
        627,
        310,
        45,
        530,
        689,
        146,
        938,
        854,
        140,
        15,
        648,
        361,
        428,
        321,
        763,
        42,
        189,
        305,
        13,
        589,
        577,
        132,
        181,
        423,
        20,
        72,
        335,
        16,
        103,
        623,
        858,
        224,
        961,
        153,
        303,
        947,
        119,
        586,
        979,
        812,
        426,
        340,
        808,
        701,
        836,
        38,
        630,
        392,
        896,
        708,
        249,
        60,
        868,
        217,
        916,
        587,
        667,
        313,
        141,
        174,
        128,
        738,
        970,
        262,
        939,
        59,
        500,
        912,
        940,
        766,
        632,
        704,
        719,
        133,
        18,
        167,
        152,
        204,
        319,
        945,
        869,
        299,
        863,
        487,
        356,
        190,
        145,
        919,
        525,
        410,
        621,
        69,
        798,
        707,
        884,
        312,
        540,
        887,
        953,
        966,
        874,
        957,
        553,
        390,
        832,
        282,
        92,
        99,
        911,
        549,
        899,
        76,
        443,
        328,
        43,
        326,
        435,
        811,
        9,
        254,
        810,
        116,
        772,
        81,
        824,
        431,
        946,
        934,
        354,
        760,
        339,
        379,
        309,
        792,
        551,
        677,
        107,
        963,
        915,
        717,
        546,
        913,
        325,
        720,
        602,
        650,
        327,
        351,
        688,
        95,
        833,
        695,
        735,
        421,
        642,
        771,
        856,
        341,
        293,
        676,
        274,
        124,
        330,
        232,
        260,
        257,
        802,
        187,
        842,
        931,
        307,
        350,
        242,
        539,
        437,
        855,
        294,
        439,
        814,
        984,
        320,
        37,
        889,
        998,
        162,
        91,
        804,
        769,
        291,
        94,
        266,
        974,
        459,
        751,
        800,
        315,
        480,
        347,
        716,
        918,
        594,
        438,
        468,
        879,
        643,
        838,
        247,
        852,
        737,
        36,
        522,
        843,
        850,
        373,
        864,
        631,
        210,
        369,
        39,
        250,
        54,
        337,
        958,
        617,
        27,
        301,
        601,
        334,
        29,
        297,
        380,
        718,
        177,
        122,
        743,
        514,
        544,
        62,
        784,
        2,
        230,
        405,
        749,
        235,
        705,
        971,
        857,
        614,
        14,
        954,
        65,
        256,
        33,
        489,
        774,
        679,
        893,
        618,
        659,
        662,
        562,
        526,
        936,
        964,
        389,
        588,
        371,
        736,
        219,
        375,
        805,
        193,
        846,
        8,
        223,
        469,
        61,
        415,
        663,
        990,
        441,
        115,
        206,
        322,
        329,
        281,
        989,
        238,
        323,
        404,
        157,
        750,
        272,
        699,
        721,
        948,
        991,
        747,
        739,
        580,
        937,
        50,
        89,
        445,
        359,
        182,
        205,
        922,
        713,
        164,
        93,
        298,
        479,
        463,
        118,
        207,
        55,
        775,
        151,
        137,
        382,
        619,
        209,
        697,
        166,
        900,
        710,
        629,
        273,
        35,
        277,
        168,
        909,
        825,
        582,
        400,
        200,
        97,
        675,
        497,
        391,
        867,
        725,
        342,
        930,
        570,
        226,
        143,
        196,
        932,
        625,
        543,
        645,
        318,
        31,
        923,
        641,
        85,
        258,
        987,
        23,
        620,
        10,
        363,
        556,
        692,
        669,
        79,
        560,
        510,
        742,
        175,
        835,
        523,
        816,
        972,
        106,
        434,
        517,
        542,
        25,
        528,
        96,
        173,
        344,
        917,
        4,
        591,
        754,
        457,
        680,
        470,
        670,
        450,
        821,
        286,
        111,
        664,
        516,
        252,
        278,
        521,
        406,
        545,
        453,
        259,
        231,
        891,
        6,
        729,
        314,
        296,
        590,
        762,
        418,
        877,
        364,
        125,
        228,
        486,
        12,
        236,
        234,
        123,
        501,
        120,
        547,
        696,
        996,
        47,
        22,
        57,
        861,
        748,
        584,
        289,
        834,
        674,
        58,
        66,
        403,
        786,
        968,
        216,
        686,
        652,
        485,
        292,
        370,
        538,
        185,
        878,
        3,
        951,
        603,
        503,
        7,
        512,
        894,
        905,
        557,
        466,
        499,
        536,
        393,
        40,
        506,
        360,
        213,
        793,
        626,
        481,
        572,
        809,
        829,
        240,
        71,
        870,
        101,
        458,
        906,
        841,
        444,
        554,
        563,
        555,
        121,
        597,
        881,
        892,
        492,
        731,
        910,
        422,
        308,
        46,
        685,
        455,
        837,
        476,
        942,
        668,
        845,
        608,
        436,
        77,
        138,
        180,
        488,
        465,
        873,
        883,
        397,
        926,
        651,
        790,
        509,
        460,
        988,
        740,
        981,
        741,
        921,
        505,
        195,
        67,
        442,
        649,
        372,
        799,
        454,
        357,
        290,
        541,
        690,
        609,
        646,
        201,
        283,
        897,
        117,
        566,
        366,
        304,
        952,
        840,
        567,
        820,
        564,
        986,
        306,
        726,
        801,
        30,
        960,
        270,
        34,
        903,
        997,
        411,
        761,
        872,
        752,
        68,
        26,
        114,
        985,
        610,
        498,
        606,
        853,
        136,
        529,
        237,
        781,
        830,
        184,
        644,
        491,
        746,
        694,
        425,
        636,
        287,
        255,
        888,
        149,
        703,
        813,
        194,
        100,
        424,
        518,
        711,
        377,
        520,
        573,
        447,
        109,
        331,
        432,
        420,
        440,
        920,
        333,
        83,
        446,
        797,
        452,
        977,
        851,
        407,
        723,
        73,
        975,
        130,
        865,
        316,
        172,
        78,
        495,
        345,
        113,
        186,
        416,
        473,
        839,
        576,
        135,
        385,
        709,
        513,
        464,
        225,
        929,
        246,
        574,
        367,
        160,
        598,
        885,
        271,
        402,
        417,
        154,
        666,
        383,
        605,
        860,
        973,
        248,
        398,
        907,
        461,
        336,
        768,
        80,
        933,
        51,
        203,
        112,
        163,
        531,
        787,
        791,
        368,
        110,
        925,
        635,
        537,
        935,
        826,
        890,
        496,
        475,
        63,
        765,
        429,
        706,
        693,
        901,
        261,
        758,
        712,
        658,
        276,
        353,
        105,
        131,
        300,
        727,
        244,
        962,
        955,
        831,
        268,
        871,
        474,
        898,
        102,
        202,
        199,
        396,
        52,
        482,
        815,
        104,
        550,
        559,
        279,
        82,
        229,
        241,
        285,
        477,
        616,
        661,
        165,
        818,
        817,
        192,
        170,
        183,
        386,
        394,
        346,
        534,
        243,
        221,
        886,
        956,
        733,
        628,
        448,
        275,
        532,
        847,
        683,
        490,
        995,
        365,
        882,
        681,
        730,
        665,
        655,
        218,
        613,
        639,
        90,
        179,
        687,
        41,
        612,
        471,
        756,
        134,
        959,
        178,
        53,
        348,
        773,
        653,
        753,
        86,
        715,
        895,
        927,
        978,
        414,
        126,
        519,
        849,
        660,
        267,
        876,
        944,
        950,
        139,
        317,
        569,
        999,
        462,
        171,
        302,
        561,
        527,
        381,
        844,
        637,
        70,
        484,
        859,
        197,
        796,
        17,
        980,
        84,
        568,
        191,
        767,
        928,
        533,
        251,
        902,
        75,
        5,
        823,
        657,
        74,
        822,
        757,
        349,
        624,
        764,
        759,
        176,
        967,
        524,
        378,
        585,
        789,
        782,
        98,
        430,
        433,
        212,
        220,
        828,
        682,
        924,
        607,
        129,
        622,
        144,
        108,
        722,
        578,
        914,
        419,
        969,
        374,
        994,
        575,
        983,
        565,
        700,
        408,
        908,
        401,
        265,
        324,
        780,
        654,
        827,
        142,
        875,
        159,
        245,
        264,
        388,
        866,
        355,
        504
    ],
    "Global Optimum": 0,
    "Algorithm": "Genetic algorithm",
    "Parameters": {
        "population": 30,
        "offspring": 30,
        "mutation probability": 0.001,
        "crossover probability": 0.9
    },
    "Fitness": 1376879,
    "Solution": [
        269,
        745,
        515,
        785,
        778,
        169,
        44,
        702,
        755,
        671,
        714,
        941,
        548,
        376,
        596,
        211,
        338,
        640,
        343,
        698,
        155,
        456,
        684,
        24,
        535,
        783,
        478,
        21,
        862,
        208,
        734,
        593,
        412,
        87,
        803,
        904,
        592,
        233,
        583,
        976,
        732,
        744,
        215,
        253,
        993,
        358,
        691,
        647,
        280,
        295,
        188,
        449,
        362,
        156,
        1,
        493,
        88,
        724,
        384,
        413,
        158,
        198,
        451,
        263,
        943,
        399,
        779,
        214,
        806,
        552,
        949,
        284,
        848,
        770,
        638,
        494,
        395,
        161,
        788,
        467,
        288,
        32,
        483,
        581,
        599,
        611,
        311,
        332,
        511,
        150,
        795,
        352,
        673,
        508,
        604,
        19,
        227,
        571,
        982,
        992,
        472,
        502,
        11,
        794,
        678,
        776,
        600,
        49,
        64,
        777,
        634,
        147,
        127,
        28,
        807,
        672,
        0,
        615,
        728,
        48,
        409,
        656,
        148,
        427,
        558,
        633,
        387,
        595,
        579,
        819,
        239,
        222,
        507,
        880,
        56,
        965,
        627,
        310,
        45,
        530,
        689,
        146,
        938,
        854,
        140,
        15,
        648,
        361,
        428,
        321,
        763,
        42,
        189,
        305,
        13,
        589,
        577,
        132,
        181,
        423,
        20,
        72,
        335,
        16,
        103,
        623,
        858,
        224,
        961,
        153,
        303,
        947,
        119,
        586,
        979,
        812,
        426,
        340,
        808,
        701,
        836,
        38,
        630,
        392,
        896,
        708,
        249,
        60,
        868,
        217,
        916,
        587,
        667,
        313,
        141,
        174,
        128,
        738,
        970,
        262,
        939,
        59,
        500,
        912,
        940,
        766,
        632,
        704,
        719,
        133,
        18,
        167,
        152,
        204,
        319,
        945,
        869,
        299,
        863,
        487,
        356,
        190,
        145,
        919,
        525,
        410,
        621,
        69,
        798,
        707,
        884,
        312,
        540,
        887,
        953,
        966,
        874,
        957,
        553,
        390,
        832,
        282,
        92,
        99,
        911,
        549,
        899,
        76,
        443,
        328,
        43,
        326,
        435,
        811,
        9,
        254,
        810,
        116,
        772,
        81,
        824,
        431,
        946,
        934,
        354,
        760,
        339,
        379,
        309,
        792,
        551,
        677,
        107,
        963,
        915,
        717,
        546,
        913,
        325,
        720,
        602,
        650,
        327,
        351,
        688,
        95,
        833,
        695,
        735,
        421,
        642,
        771,
        856,
        341,
        293,
        676,
        274,
        124,
        330,
        232,
        260,
        257,
        802,
        187,
        842,
        931,
        307,
        350,
        242,
        539,
        437,
        855,
        294,
        439,
        814,
        984,
        320,
        37,
        889,
        998,
        162,
        91,
        804,
        769,
        291,
        94,
        266,
        974,
        459,
        751,
        800,
        315,
        480,
        347,
        716,
        918,
        594,
        438,
        468,
        879,
        643,
        838,
        247,
        852,
        737,
        36,
        522,
        843,
        850,
        373,
        864,
        631,
        210,
        369,
        39,
        250,
        54,
        337,
        958,
        617,
        27,
        301,
        601,
        334,
        29,
        297,
        380,
        718,
        177,
        122,
        743,
        514,
        544,
        62,
        784,
        2,
        230,
        405,
        749,
        235,
        705,
        971,
        857,
        614,
        14,
        954,
        65,
        256,
        33,
        489,
        774,
        679,
        893,
        618,
        659,
        662,
        562,
        526,
        936,
        964,
        389,
        588,
        371,
        736,
        219,
        375,
        805,
        193,
        846,
        8,
        223,
        469,
        61,
        415,
        663,
        990,
        441,
        115,
        206,
        322,
        329,
        281,
        989,
        238,
        323,
        404,
        157,
        750,
        272,
        699,
        721,
        948,
        991,
        747,
        739,
        580,
        937,
        50,
        89,
        445,
        359,
        182,
        205,
        922,
        713,
        164,
        93,
        298,
        479,
        463,
        118,
        207,
        55,
        775,
        151,
        137,
        382,
        619,
        209,
        697,
        166,
        900,
        710,
        629,
        273,
        35,
        277,
        168,
        909,
        825,
        582,
        400,
        200,
        97,
        675,
        497,
        391,
        867,
        725,
        342,
        930,
        570,
        226,
        143,
        196,
        932,
        625,
        543,
        645,
        318,
        31,
        923,
        641,
        85,
        258,
        987,
        23,
        620,
        10,
        363,
        556,
        692,
        669,
        79,
        560,
        510,
        742,
        175,
        835,
        523,
        816,
        972,
        106,
        434,
        517,
        542,
        25,
        528,
        96,
        173,
        344,
        917,
        4,
        591,
        754,
        457,
        680,
        470,
        670,
        450,
        821,
        286,
        111,
        664,
        516,
        252,
        278,
        521,
        406,
        545,
        453,
        259,
        231,
        891,
        6,
        729,
        314,
        296,
        590,
        762,
        418,
        877,
        364,
        125,
        228,
        486,
        12,
        236,
        234,
        123,
        501,
        120,
        547,
        696,
        996,
        47,
        22,
        57,
        861,
        748,
        584,
        289,
        834,
        674,
        58,
        66,
        403,
        786,
        968,
        216,
        686,
        652,
        485,
        292,
        370,
        538,
        185,
        878,
        3,
        951,
        603,
        503,
        7,
        512,
        894,
        905,
        557,
        466,
        499,
        536,
        393,
        40,
        506,
        360,
        213,
        793,
        626,
        481,
        572,
        809,
        829,
        240,
        71,
        870,
        101,
        458,
        906,
        841,
        444,
        554,
        563,
        555,
        121,
        597,
        881,
        892,
        492,
        731,
        910,
        422,
        308,
        46,
        685,
        455,
        837,
        476,
        942,
        668,
        845,
        608,
        436,
        77,
        138,
        180,
        488,
        465,
        873,
        883,
        397,
        926,
        651,
        790,
        509,
        460,
        988,
        740,
        981,
        741,
        921,
        505,
        195,
        67,
        442,
        649,
        372,
        799,
        454,
        357,
        290,
        541,
        690,
        609,
        646,
        201,
        283,
        897,
        117,
        566,
        366,
        304,
        952,
        840,
        567,
        820,
        564,
        986,
        306,
        726,
        801,
        30,
        960,
        270,
        34,
        903,
        997,
        411,
        761,
        872,
        752,
        68,
        26,
        114,
        985,
        610,
        498,
        606,
        853,
        136,
        529,
        237,
        781,
        830,
        184,
        644,
        491,
        746,
        694,
        425,
        636,
        287,
        255,
        888,
        149,
        703,
        813,
        194,
        100,
        424,
        518,
        711,
        377,
        520,
        573,
        447,
        109,
        331,
        432,
        420,
        440,
        920,
        333,
        83,
        446,
        797,
        452,
        977,
        851,
        407,
        723,
        73,
        975,
        130,
        865,
        316,
        172,
        78,
        495,
        345,
        113,
        186,
        416,
        473,
        839,
        576,
        135,
        385,
        709,
        513,
        464,
        225,
        929,
        246,
        574,
        367,
        160,
        598,
        885,
        271,
        402,
        417,
        154,
        666,
        383,
        605,
        860,
        973,
        248,
        398,
        907,
        461,
        336,
        768,
        80,
        933,
        51,
        203,
        112,
        163,
        531,
        787,
        791,
        368,
        110,
        925,
        635,
        537,
        935,
        826,
        890,
        496,
        475,
        63,
        765,
        429,
        706,
        693,
        901,
        261,
        758,
        712,
        658,
        276,
        353,
        105,
        131,
        300,
        727,
        244,
        962,
        955,
        831,
        268,
        871,
        474,
        898,
        102,
        202,
        199,
        396,
        52,
        482,
        815,
        104,
        550,
        559,
        279,
        82,
        229,
        241,
        285,
        477,
        616,
        661,
        165,
        818,
        817,
        192,
        170,
        183,
        386,
        394,
        346,
        534,
        243,
        221,
        886,
        956,
        733,
        628,
        448,
        275,
        532,
        847,
        683,
        490,
        995,
        365,
        882,
        681,
        730,
        665,
        655,
        218,
        613,
        639,
        90,
        179,
        687,
        41,
        612,
        471,
        756,
        134,
        959,
        178,
        53,
        348,
        773,
        653,
        753,
        86,
        715,
        895,
        927,
        978,
        414,
        126,
        519,
        849,
        660,
        267,
        876,
        944,
        950,
        139,
        317,
        569,
        999,
        462,
        171,
        302,
        561,
        527,
        381,
        844,
        637,
        70,
        484,
        859,
        197,
        796,
        17,
        980,
        84,
        568,
        191,
        767,
        928,
        533,
        251,
        902,
        75,
        5,
        823,
        657,
        74,
        822,
        757,
        349,
        624,
        764,
        759,
        176,
        967,
        524,
        378,
        585,
        789,
        782,
        98,
        430,
        433,
        212,
        220,
        828,
        682,
        924,
        607,
        129,
        622,
        144,
        108,
        722,
        578,
        914,
        419,
        969,
        374,
        994,
        575,
        983,
        565,
        700,
        408,
        908,
        401,
        265,
        324,
        780,
        654,
        827,
        142,
        875,
        159,
        245,
        264,
        388,
        866,
        355,
        504
    ],
    "Nb of functions evaluations": 50010,
    "Computational time in seconds": 1568.3919324874878,
    "Stopping criterion in evaluations": 50000
}